p cnf 29 20
-7 17 -23 0
6 -18 -27 0
11 10 -11 0
-10 -20 1 0
-8 8 28 0
-9 17 -14 0
-22 -26 -23 0
26 -26 16 0
-1 -2 -3 -4 -5 -6 -7 -8 -9 -10 -11 -12 -13 -14 -15 -16 -17 -18 -19 -20 -21 -22 -23 -24 -25 -26 -27 -28 -29 0
2 -4 1 0
-28 -20 13 0
-19 16 4 0
22 -17 -25 0
1 2 3 4 5 6 7 8 9 10 11 12 13 14 15 16 17 18 19 20 21 22 23 24 25 26 27 28 29 0
6 -15 13 0
21 -28 17 0
25 -6 -19 0
13 22 -22 0
-20 -7 15 0
12 -2 26 0
